c ---- [ banner ] ------------------------------------------------------------
c
c Kissat SAT Solver
c 
c Copyright (c) 2021-2024 Armin Biere University of Freiburg
c Copyright (c) 2019-2021 Armin Biere Johannes Kepler University Linz
c 
c Version 4.0.1 43f02cf3e992cb44653b35e5cb26f93281552ae0
c gcc (Ubuntu 13.2.0-23ubuntu4) 13.2.0 -W -Wall -O3 -DNDEBUG
c Thu Sep 12 12:27:46 CEST 2024 Linux abryzen9 6.8.0-41-generic x86_64
c
c ---- [ parsing ] -----------------------------------------------------------
c
c opened and reading DIMACS file:
c
c   /data/artifact/AMulet2.0_artifact/exp4/cnf_dc2_64/64_64_U_SP_AR_RC_GenMul_dc2.cnf
c
c parsed 'p cnf 28246 124382' header
c closing input after reading 2476557 bytes (2 MB)
c finished parsing after 0.02 seconds
c
c ---- [ options ] -----------------------------------------------------------
c
c --stable=0                       (different from default '1')
c
c ---- [ solving ] -----------------------------------------------------------
c
c  seconds switched rate     size/glue tier1  binary          remaining
c         MB reductions conflicts size  tier2    irredundant
c          level restarts redundant glue  trail          variables
c
c *  0.02 10 0 0 0  0 0   0   0 0.0 0 0 0 0 0% 8533 115847 28243 100%
c (  0.04 13 0 0 0  0 0   0   0 0.0 0 0 0 0 0% 8533 115847 28243 100%
c .  0.04 13 0 0 0  0 0   0   0 0.0 0 0 0 0 0% 8529 115847 28243 100%
c f  0.16 16 0 0 0  0 0   0   0 0.0 0 0 0 0 0% 8530 115845 28244 100%
c e  0.25 23 0 0 0  0 0   0   0 0.0 0 0 0 0 0% 8445 115885 20220 72%
c )  0.25 23 0 0 0  0 0   0   0 0.0 0 0 0 0 0% 8445 115885 20220 72%
c {  0.27 23 0 0 0  0 0   0   0 0.0 0 0 2 6 0% 8445 115885 20220 72%
c -  0.34 25 341 0 1 136 16 1000 872 2.0 11 5 3 13 23% 8455 115885 20220 72%
c -  0.44 25 223 0 2 338 20 2000 1643 2.0 11 6 4 13 23% 8470 115885 20220 72%
c u  0.51 25 197 0 2 437 21 2505 1886 2.0 12 6 4 13 22% 8482 115885 20220 72%
c v  0.52 25 197 0 2 437 21 2505 1856 2.0 12 6 4 13 22% 8482 115885 20220 72%
c w  0.53 25 197 0 2 437 21 2505 1855 2.0 12 6 4 13 22% 8482 115885 20220 72%
c f  0.56 25 197 0 2 437 21 2505 1855 2.0 12 6 4 13 22% 8483 115883 20221 72%
c u  0.61 25 197 0 2 437 21 2505 1543 2.0 12 6 4 13 22% 8483 115883 20221 72%
c v  0.62 25 197 0 2 437 21 2505 1474 2.0 12 6 4 13 22% 8483 115883 20221 72%
c w  0.63 25 197 0 2 437 21 2505 1473 2.0 12 6 4 13 22% 8483 115883 20221 72%
c =  0.66 25 197 0 2 437 21 2505 1473 2.0 12 6 4 13 22% 8731 115881 20097 71%
c d  0.67 25 197 0 2 437 21 2505 1472 2.0 12 6 4 13 22% 8483 115881 20097 71%
c f  0.69 25 197 0 2 437 21 2505 1472 2.0 12 6 4 13 22% 8486 115875 20100 71%
c -  0.79 25 167 0 3 667 22 3414 1974 2.0 12 6 4 13 21% 8501 115875 20100 71%
c
c  seconds   switched   rate       size/glue tier1     binary          remaining
c         MB  reductions conflicts       size  tier2      irredundant
c           level restarts    redundant    glue    trail          variables
c
c -  1.03 25 143 0 4 935 20 5146 3114 2.0 13 6 4 13 22% 8518 115875 20100 71%
c -  1.34 25 133 0 5 1254 20 7147 4312 2.0 13 7 4 12 21% 8548 115875 20100 71%
c u  1.47 25 130 0 5 1326 19 7715 4545 2.0 13 7 4 12 21% 8571 115875 20100 71%
c v  1.49 25 130 0 5 1326 19 7715 4453 2.0 13 7 4 12 21% 8571 115875 20100 71%
c w  1.51 25 130 0 5 1326 19 7715 4452 2.0 13 7 4 12 21% 8571 115875 20100 71%
c =  1.64 25 130 0 5 1326 19 7715 4452 2.0 13 7 4 12 21% 10339 115841 19216 68%
c d  1.64 25 130 0 5 1326 19 7715 4405 2.0 13 7 4 12 21% 8571 115841 19216 68%
c t  1.66 25 130 0 5 1326 19 7715 4405 2.0 13 7 4 12 21% 8562 115841 19216 68%
c f  1.69 25 130 0 5 1326 19 7715 4405 2.0 13 7 4 12 21% 8599 115731 19271 68%
c u  1.76 25 130 0 5 1326 19 7715 3916 2.0 13 7 4 12 21% 8630 115731 19271 68%
c v  1.80 25 130 0 5 1326 19 7715 3762 2.0 13 7 4 12 21% 8631 115731 19271 68%
c w  1.82 25 130 0 5 1326 19 7715 3760 2.0 13 7 4 12 21% 8631 115731 19271 68%
c =  1.92 25 130 0 5 1326 19 7715 3760 2.0 13 7 4 12 21% 10355 115649 18403 65%
c d  1.93 25 130 0 5 1326 19 7715 3756 2.0 13 7 4 12 21% 8631 115649 18403 65%
c t  1.95 25 130 0 5 1326 19 7715 3756 2.0 13 7 4 12 21% 8601 115649 18403 65%
c f  1.98 25 130 0 5 1326 19 7715 3756 2.0 13 7 4 12 21% 8652 115517 18469 65%
c -  2.15 25 127 0 6 1429 19 9383 4547 2.0 13 7 3 12 21% 8661 115517 18469 65%
c o  2.21 25 124 0 6 1495 18 10000 5145 2.0 13 7 3 12 21% 8664 115517 18469 65%
c -  2.45 25 120 0 7 1681 18 11832 5950 2.0 13 7 3 11 21% 8682 115515 18469 65%
c s  2.58 25 119 0 7 1755 18 12520 6607 2.0 13 7 3 11 21% 8691 102698 18469 65%
c
c  seconds   switched    rate        size/glue tier1     binary          remaining
c         MB  reductions   conflicts       size  tier2      irredundant
c           level  restarts     redundant    glue    trail          variables
c
c e  2.67 25 119 0 7 1755 18 12520 6607 2.0 13 7 3 11 21% 8556 102807 18333 65%
c s  2.67 25 119 0 7 1755 18 12520 6607 2.0 13 7 3 11 21% 8556 102783 18333 65%
c e  2.68 25 119 0 7 1755 18 12520 6607 2.0 13 7 3 11 21% 8545 102774 18322 65%
c ^  2.68 25 119 0 7 1755 18 12520 6607 2.0 13 7 3 11 21% 8545 102774 18322 65%
c -  2.87 25 116 0 8 1993 17 14477 7306 2.0 14 7 3 11 20% 8556 102774 18322 65%
c c  3.07 25 116 0 8 2132 17 15803 8584 2.0 14 7 3 11 20% 8592 102681 18310 65%
c d  3.08 25 116 0 8 2132 17 15803 8584 2.0 14 7 3 11 20% 8568 102681 18310 65%
c u  3.13 25 116 0 8 2132 17 15803 7943 2.0 14 7 3 11 20% 8623 102681 18310 65%
c v  3.17 25 116 0 8 2132 17 15803 7745 2.0 14 7 3 11 20% 8623 102681 18310 65%
c w  3.18 25 116 0 8 2132 17 15803 7745 2.0 14 7 3 11 20% 8623 102681 18310 65%
c =  3.29 25 116 0 8 2132 17 15803 7745 2.0 14 7 3 11 20% 10149 102681 17547 62%
c d  3.30 25 116 0 8 2132 17 15803 7733 2.0 14 7 3 11 20% 8623 102681 17547 62%
c t  3.32 25 116 0 8 2132 17 15803 7733 2.0 14 7 3 11 20% 8621 102681 17547 62%
c u  3.40 25 116 0 8 2132 17 15803 7358 2.0 14 7 3 11 20% 8630 102681 17547 62%
c v  3.43 25 116 0 8 2132 17 15803 7288 2.0 14 7 3 11 20% 8630 102681 17547 62%
c w  3.45 25 116 0 8 2132 17 15803 7287 2.0 14 7 3 11 20% 8630 102681 17547 62%
c x  3.47 25 116 0 8 2132 17 15803 7287 2.0 14 7 3 11 20% 8630 101076 17547 62%
c =  3.58 25 116 0 8 2132 17 15803 7287 2.0 14 7 3 11 20% 10622 100992 16543 59%
c d  3.59 25 116 0 8 2132 17 15803 7287 2.0 14 7 3 11 20% 8630 100992 16543 59%
c t  3.61 25 116 0 8 2132 17 15803 7287 2.0 14 7 3 11 20% 8601 100992 16543 59%
c
c  seconds   switched    rate        size/glue tier1     binary          remaining
c         MB  reductions   conflicts       size  tier2      irredundant
c           level  restarts     redundant    glue    trail          variables
c
c -  3.81 25 114 0 9 2277 17 17305 7103 2.0 14 7 2 10 21% 8599 100992 16543 59%
c o  4.09 25 112 0 9 2546 16 20005 9711 2.0 14 7 2 10 21% 8630 100992 16543 59%
c -  4.15 25 114 0 10 2568 16 20305 8317 2.0 14 7 2 10 21% 8631 100992 16543 59%
c -  4.45 25 114 0 11 2735 16 23468 9575 2.0 14 7 2 10 21% 8668 100992 16543 59%
c s  4.64 25 113 0 11 2984 16 25024 11085 2.0 14 7 2 10 21% 8686 90372 16543 59%
c e  4.73 25 113 0 11 2984 16 25024 11085 2.0 14 7 2 10 21% 8667 90365 16525 59%
c s  4.73 25 113 0 11 2984 16 25024 11085 2.0 14 7 2 10 21% 8670 90355 16525 59%
c e  4.74 25 113 0 11 2984 16 25024 11085 2.0 14 7 2 10 21% 8662 90359 16522 58%
c ^  4.74 25 113 0 11 2984 16 25024 11085 2.0 14 7 2 10 21% 8662 90359 16522 58%
c -  4.93 25 112 0 12 3129 16 26785 10677 2.0 14 7 2 9 21% 8675 90359 16522 58%
c u  5.03 25 113 0 12 3146 16 26934 9636 2.0 14 7 2 9 21% 8731 90359 16522 58%
c v  5.08 25 113 0 12 3146 16 26934 9088 2.0 14 7 2 9 21% 8734 90359 16522 58%
c w  5.09 25 113 0 12 3146 16 26934 9087 2.0 14 7 2 9 21% 8734 90359 16522 58%
c =  5.25 25 113 0 12 3146 16 26934 9087 2.0 14 7 2 9 21% 11380 90275 15193 54%
c d  5.26 25 113 0 12 3146 16 26934 9047 2.0 14 7 2 9 21% 8729 90275 15193 54%
c t  5.27 25 113 0 12 3146 16 26934 9047 2.0 14 7 2 9 21% 8703 90275 15193 54%
c f  5.31 25 113 0 12 3146 16 26934 9047 2.0 14 7 2 9 21% 8681 90271 15194 54%
c u  5.37 25 113 0 12 3146 16 26934 8602 2.0 14 7 2 9 21% 8685 90271 15194 54%
c v  5.41 25 113 0 12 3146 16 26934 8499 2.0 14 7 2 9 21% 8685 90271 15194 54%
c w  5.42 25 113 0 12 3146 16 26934 8496 2.0 14 7 2 9 21% 8685 90271 15194 54%
c
c  seconds   switched     rate        size/glue tier1    binary         remaining
c         MB   reductions   conflicts       size  tier2     irredundant
c           level   restarts     redundant    glue   trail         variables
c
c x  5.45 25 113 0 12 3146 16 26934 8496 2.0 14 7 2 9 21% 8685 85164 15194 54%
c =  5.59 25 113 0 12 3146 16 26934 8496 2.0 14 7 2 9 21% 11339 85100 13862 49%
c d  5.60 25 113 0 12 3146 16 26934 8496 2.0 14 7 2 9 21% 8687 85100 13862 49%
c t  5.62 25 113 0 12 3146 16 26934 8496 2.0 14 7 2 9 21% 8679 85100 13862 49%
c -  5.92 25 110 0 13 3437 15 30249 9874 2.0 14 7 2 9 22% 8668 85100 13862 49%
c -  6.26 25 108 0 14 3831 15 33854 11400 2.0 14 7 2 9 22% 8691 85100 13862 49%
c -  6.63 25 106 0 15 4194 15 37595 12737 2.1 14 7 2 8 23% 8714 85100 13862 49%
c o  6.87 25 106 0 15 4406 15 40095 15168 2.1 14 7 2 8 23% 8731 85100 13862 49%
c c  7.04 25 105 0 15 4523 15 41264 16221 2.1 14 7 2 8 23% 8780 84978 13847 49%
c d  7.05 25 105 0 15 4523 15 41264 16207 2.1 14 7 2 8 23% 8750 84978 13847 49%
c u  7.10 25 105 0 15 4523 15 41264 15783 2.1 14 7 2 8 23% 8760 84978 13847 49%
c v  7.15 25 105 0 15 4523 15 41264 15404 2.1 14 7 2 8 23% 8762 84978 13847 49%
c w  7.17 25 105 0 15 4523 15 41264 15400 2.1 14 7 2 8 23% 8762 84978 13847 49%
c x  7.22 25 105 0 15 4523 15 41264 15400 2.1 14 7 2 8 23% 8762 81591 13847 49%
c =  7.38 25 105 0 15 4523 15 41264 15400 2.1 14 7 2 8 23% 12158 81361 12119 43%
c }  7.38 25 105 0 15 4523 15 41264 15400 2.1 14 7 2 8 23% 12158 81361 13812 49%
c 0  7.38 25 105 0 15 4523 15 41264 15400 2.1 14 7 2 8 23% 12158 81361 13812 49%
c
c ---- [ result ] ------------------------------------------------------------
c
s UNSATISFIABLE
c
c ---- [ profiling ] ---------------------------------------------------------
c
c           4.35   58.98 %  search
c           4.35   58.97 %  focused
c           2.76   37.37 %  simplify
c           2.61   35.28 %  probe
c           0.96   12.99 %  sweep
c           0.85   11.51 %  vivify
c           0.30    4.09 %  factor
c           0.27    3.68 %  eliminate
c           0.23    3.14 %  substitute
c           0.21    2.89 %  preprocess
c           0.18    2.46 %  congruence
c           0.09    1.23 %  fastel
c           0.08    1.10 %  reduce
c           0.05    0.72 %  subsume
c           0.05    0.67 %  transitive
c           0.04    0.48 %  lucky
c           0.03    0.43 %  backbone
c           0.02    0.28 %  parse
c =============================================
c           7.38  100.00 %  total
c
c ---- [ statistics ] --------------------------------------------------------
c
c chronological:                          390                1 %  conflicts
c conflicts:                            41264             5587.84 per second
c congruent:                               27                0 %  variables
c decisions:                           601590               14.58 per conflict
c eliminated:                            8192               29 %  variables
c factored:                               127                0 %  variables
c fast_eliminated:                       8024               98 %  eliminated
c fast_subsumed:                            1                0 %  per subsumed
c propagations:                      30578544          4140848    per second
c reductions:                              15             2751    interval
c reordered:                                3            13755    interval
c restarts:                              4523                9    interval
c strengthened:                           113                0 %  checks
c substituted:                           6303               22 %  variables
c subsumed:                             23468                2 %  checks
c switched:                                 0                0    interval
c vivified:                             20736               25 %  checks
c
c ---- [ glue usage ] --------------------------------------------------------
c
c focused glue 2   used 16284 clauses 29.87% accumulated 64.47% tier1
c focused glue 3   used  5027 clauses  9.22% accumulated 73.70%
c focused glue 4-6 used  6850 clauses 12.57% accumulated 86.26%
c focused glue 7   used  1420 clauses  2.60% accumulated 88.87%
c focused glue 8   used  1121 clauses  2.06% accumulated 90.92% tier2
c
c ---- [ resources ] ---------------------------------------------------------
c
c maximum-resident-set-size:         26550272 bytes         25 MB
c process-time:                             7s               7.38 seconds
c
c ---- [ shutting down ] -----------------------------------------------------
c
c exit 20
